20
42
10
70
49
75
87
35
56
36
96
12
24
0 1
0 2
0 6
0 10
0 16
1 4
1 16
1 19
2 8
2 9
2 11
3 8
3 11
3 12
3 18
4 9
4 10
4 12
4 13
4 15
5 14
6 15
6 18
6 19
7 13
7 17
8 9
8 10
8 11
8 12
8 18
9 10
9 12
9 14
11 14
11 18
12 18
13 17
13 18
14 16
14 18
15 17
5 18
16 19
8 1
3 4
10 6
0 12
9 17
7 2
11 13
15 14
